NAME          sos1test
ROWS
 N  obj
 L  c1
COLUMNS
    x1  obj  -1.0  c1  1.0
    x2  obj  -2.0  c1  1.0
    x3  obj  -3.0  c1  1.0
RHS
    rhs  c1  10.0
BOUNDS
 UP  bnd  x1  10.0
 UP  bnd  x2  10.0
 UP  bnd  x3  10.0
SOS
 S1  set1
    x1  1.0
    x2  2.0
    x3  3.0
ENDATA
